objective value:                                   10
lambda[0,17]*                                       1 	(obj:10)
lambda[1,23]*                                       4 	(obj:0)
lambda[0,24]*                                       6 	(obj:0)
lambda[0,26]*                                       2 	(obj:0)
lambda[1,30]*                                       3 	(obj:0)
lambda[1,31]*                                       3 	(obj:0)
lambda[0,29]*                                       1 	(obj:0)
